\ENCODING=ISO-8859-1
\Problem name: 

Minimize
 obj1: x13 + x14
Subject To
 c1:  x1 + x9 + x10  = 1
 c2:  x2 + x9 + x10  = 1
 c3:  x3 + x11 + x12  = 1
 c4:  x4 + x11 + x12  = 1
 c5:  x5 - x6 + 2 x9 <= 1
 c6:  - x5 + x6 + 2 x10 <= 1
 c7:  x7 - x8 + 2 x11 <= 1
 c8:  - x7 + x8 + 2 x12 <= 1
 c9:  x1 + x2  = 1
 c10: x3 + x4  = 1
 c11: x1 + x3 - x13 <= 1
 c12: x2 + x4 - x14 <= 1
Bounds
 0 <= x1 <= 1
 0 <= x2 <= 1
 0 <= x3 <= 1
 0 <= x4 <= 1
 0 <= x5 <= 1
 0 <= x6 <= 1
 0 <= x7 <= 1
 0 <= x8 <= 1
 0 <= x9 <= 1
 0 <= x10 <= 1
 0 <= x11 <= 1
 0 <= x12 <= 1
 0 <= x13 <= 1
 0 <= x14 <= 1
Generals
 x1  x2  x3  x4  x5  x6  x7  x8  x9  x10  x11  x12  x13  x14 
End
